44
2 82 39 
3 24 62 25 
3 5 28 23 
3 6 81 93 
3 104 100 92 
2 94 49 
3 113 118 80 
3 76 77 78 
3 88 8 86 
3 96 108 112 
2 112 70 
3 46 23 71 
2 58 119 
2 67 118 
3 3 30 85 
3 107 28 50 
3 53 46 83 
3 3 44 36 
2 31 106 
3 45 13 32 
3 89 116 99 
3 27 74 43 
2 4 109 
3 30 64 57 
3 48 67 11 
3 51 22 14 
3 54 9 38 
2 55 49 
3 39 87 104 
3 52 26 63 
3 95 37 110 
3 100 107 84 
3 56 9 33 
2 7 90 
3 101 5 95 
2 33 115 
3 54 60 29 
2 79 113 
3 40 26 18 
3 64 24 93 
3 2 102 65 
3 91 68 42 
3 92 85 75 
2 51 19 
